Route #1: 4 45 27
Route #2: 52 34 46
Route #3: 8 13 54 19 35
Route #4: 7 53 14
Route #5: 22 42 41 43 23 49
Route #6: 33 16 1
Route #7: 24 18 50
Route #8: 25 9 39
Route #9: 31 10 26
Route #10: 17 12 40
Route #11: 32 44 3 51
Route #12: 6 2 30
Route #13: 48 29 5 15
Route #14: 20 37 36 47
Route #15: 21 28
Route #16: 11 38
Cost 987